p cnf 16 32
-11 12 -13 0
-4 7 -16 0
-10 14 15 0
-2 -3 -15 0
8 14 15 0
-6 -7 8 0
5 -6 -8 0
-1 -2 -12 0
3 -11 12 0
1 2 6 0
4 -5 -14 0
-5 10 13 0
10 14 16 0
5 6 -12 0
-1 2 -8 0
-1 6 -10 0
-14 -15 -16 0
4 5 -8 0
-1 -5 -9 0
-2 8 -11 0
-8 10 16 0
-4 -11 -15 0
-3 4 -13 0
5 9 -13 0
7 9 11 0
-1 -12 -15 0
-3 -10 11 0
-7 -8 -11 0
-2 -5 -14 0
-1 -8 14 0
10 13 -15 0
2 14 16 0
